c --- [ banner ] -------------------------------------------------------------
c 
c CaDiCaL SAT Solver
c Copyright (c) 2016-2023 A. Biere, M. Fleury, N. Froleyks, K. Fazekas, F. Pollitt
c 
c Version 1.9.5
c g++ (Ubuntu 11.4.0-1ubuntu1~22.04) 11.4.0 -Wall -Wextra -O3 -DNDEBUG -static
c Thu Mar 7 06:16:21 CET 2024 Linux pc101447 6.5.0-17-generic x86_64
c 
c --- [ limit ] --------------------------------------------------------------
c 
c setting time limit to 3600 seconds real time (due to '-t 3600')
c 
c --- [ parsing input ] ------------------------------------------------------
c 
c reading DIMACS file from '/home/oliveras/SAT-comp-2023//21667cf04beae213adbab0d48408a7e4-satcoin-genesis-UNSAT-10600.cnf'
c opening file to read '/home/oliveras/SAT-comp-2023//21667cf04beae213adbab0d48408a7e4-satcoin-genesis-UNSAT-10600.cnf'
c found 'p cnf 134781 648806' header
c parsed 648806 clauses in 0.38 seconds process time
c 
c --- [ options ] ------------------------------------------------------------
c 
c   --seed=1                       (different from default '0')
c 
c --- [ solving ] ------------------------------------------------------------
c 
c time measured in process time since initialization
c 
c  seconds  reductions  redundant  irredundant
c         MB    restarts       trail       variables
c          level   conflicts       glue          remaining
c 
c *  0.38 87  0 0   0    0    0  0% 0 648661 125485 93%
c {  0.45 101  0 0   0    0    0  0% 0 648661 125485 93%
c i  0.45 101  1 0   0    1    0  0% 0 648661 125475 93%
c -  0.61 103 761 1  53  300  282  3% 10 647021 125475 93%
c }  0.69 103 457 1 135 1001  939  4% 11 647021 125475 93%
c [  0.69 103  0 1 135 1001  939  0% 0 647021 125475 93%
c O  0.76 104 2857 1 135 1002  940 94% 13 647021 125475 93%
c - 13.52 143 2854 2 135 1386  920 68% 9 647021 125475 93%
c ] 63.52 143 1473 2 136 3001 1713 68% 8 647021 125475 93%
c { 63.52 143 457 2 136 3001 1713  4% 11 647021 125475 93%
c F 63.54 143 456 2 137 3004 1716  4% 12 647021 125475 93%
c - 63.67 143 454 3 141 3015 1409  4% 12 647021 125475 93%
c s 69.31 158 314 3 465 4740 2958 10% 46 646768 125475 93%
c v 70.35 158 314 3 465 4740 2958 10% 46 642692 125475 93%
c w 70.51 158 314 3 465 4740 2958 10% 46 642692 125475 93%
c t 70.54 158 314 3 465 4740 2955 10% 46 642690 125137 93%
c e 71.43 160 314 3 465 4740  917 10% 46 553827 82866 61%
c s 71.54 170 314 3 465 4740  910 10% 46 553802 82866 61%
c e 71.68 170 314 3 465 4740  910 10% 46 553795 82862 61%
c d 72.34 144 317 3 481 5003 1164  9% 45 553789 82860 61%
c 
c  seconds    reductions   redundant   irredundant
c          MB     restarts        trail        variables
c            level   conflicts        glue          remaining
c 
c 3 72.58 144 317 3 481 5003 15912  9% 45 553789 82860 61%
c 3 72.62 144 317 3 481 5003 20385  9% 45 553789 82860 61%
c d 72.74 145 317 3 481 5003 20150  9% 45 553789 82842 61%
c 2 72.79 145 317 3 481 5003 20150  9% 45 553787 82825 61%
c p 72.85 145 317 3 481 5003 25249  9% 45 553787 82786 61%
c d 72.90 145 317 3 481 5003 24992  9% 45 553108 82785 61%
c d 72.94 145 317 3 481 5003 24904  9% 45 552936 82722 61%
c - 73.04 166 316 4 481 5190 1360  7% 44 552936 82722 61%
c # 73.12 166 316 4 482 6006 2154  7% 41 552936 82722 61%
c } 73.18 166 310 4 483 7002 3113  5% 37 552936 82722 61%
c [ 73.18 166 1473 4 483 7002 3113 111% 8 552936 82722 61%
c - 92.81 166 1056 5 484 7804 3225 103% 8 552936 82722 61%
c I 151.74 166 587 5 485 10008 4223 97% 8 552936 82722 61%
c - 177.53 166 494 6 486 10941 3064 96% 8 552936 82722 61%
c - 273.35 166 303 7 488 14601 2661 92% 8 552936 82722 61%
c ] 284.70 166 291 7 488 15003 2713 92% 8 552936 82722 61%
c { 284.70 166 310 7 488 15003 2713  5% 37 552936 82722 61%
c 3 284.83 166 310 7 488 15003 13163  5% 37 552936 82722 61%
c 2 284.99 166 310 7 488 15003 21441  5% 37 552927 82720 61%
c p 285.02 166 310 7 488 15003 26184  5% 37 552927 82720 61%
c 
c  seconds     reductions    redundant   irredundant
c           MB     restarts         trail        variables
c             level    conflicts        glue          remaining
c 
c B 285.08 166 311 7 488 15009 26190  5% 37 552927 82720 61%
c s 285.18 166 319 7 489 15703 25557  5% 36 552690 82720 61%
c v 286.19 166 319 7 489 15703 25557  5% 36 548951 82720 61%
c w 286.56 166 319 7 489 15703 25535  5% 36 548951 82720 61%
c t 286.57 166 319 7 489 15703 25525  5% 36 548935 82720 61%
c e 286.73 166 319 7 489 15703 25186  5% 36 548888 82673 61%
c s 286.75 166 319 7 489 15703 24864  5% 36 548887 82673 61%
c e 286.83 166 319 7 489 15703 24862  5% 36 548887 82672 61%
c - 287.33 167 315 8 510 18785 8407  6% 31 548887 82672 61%
c W 293.44 167 304 8 839 21011 10521  8% 41 548887 82672 61%
c - 294.14 167 295 9 910 23481 10239  8% 39 548887 82672 61%
c F 304.89 167 284 9 1375 28012 14557 10% 50 548887 82672 61%
c - 308.13 194 283 10 1505 28700 11615 11% 53 548887 82672 61%
c d 308.82 194 281 10 1550 30005 12856 11% 52 548887 82671 61%
c p 309.04 194 281 10 1550 30005 33203 11% 52 548887 82669 61%
c d 309.11 194 281 10 1550 30005 33184 11% 52 548862 82668 61%
c d 309.15 194 281 10 1550 30005 33184 11% 52 548856 82665 61%
c } 311.44 194 279 10 1708 31004 34127 11% 53 548856 82665 61%
c [ 311.44 194 291 10 1708 31004 34127 92% 8 548856 82665 61%
c s 314.87 194 285 10 1708 32091 34885 84% 16 548840 82665 61%
c 
c  seconds     reductions      redundant   irredundant
c           MB      restarts          trail        variables
c             level      conflicts        glue          remaining
c 
c v 315.59 194 285 10 1708 32091 34885 84% 16 548837 82665 61%
c w 315.76 194 285 10 1708 32091 34849 84% 16 548837 82665 61%
c t 315.77 194 285 10 1708 32091 34845 84% 16 548835 82665 61%
c e 315.88 194 285 10 1708 32091 34842 84% 16 548833 82662 61%
c s 315.90 194 285 10 1708 32091 34805 84% 16 548831 82662 61%
c e 315.99 194 285 10 1708 32091 34800 84% 16 548829 82661 61%
c - 327.51 196 282 11 1710 34445 14689 73% 40 548829 82661 61%
c B 335.57 196 280 11 1711 36014 16203 68% 53 548829 82661 61%
c - 345.18 197 280 12 1714 40706 14178 54% 61 548829 82661 61%
c W 348.36 197 278 12 1715 45015 18369 44% 55 548829 82661 61%
c - 352.62 167 277 13 1716 47489 15290 41% 54 548829 82661 61%
c 2 369.33 167 276 13 1716 50006 30995 40% 60 548829 82661 61%
c p 369.36 167 276 13 1716 50006 35448 40% 60 548829 82661 61%
c s 381.20 167 274 13 1716 53940 38096 37% 67 548828 82661 61%
c v 382.10 167 274 13 1716 53940 38096 37% 67 548818 82661 61%
c w 382.30 167 274 13 1716 53940 38092 37% 67 548818 82661 61%
c t 382.31 167 274 13 1716 53940 38091 37% 67 548817 82661 61%
c e 382.42 167 274 13 1716 53940 38081 37% 67 548816 82660 61%
c s 382.44 167 274 13 1716 53940 38063 37% 67 548815 82660 61%
c - 384.93 199 275 14 1717 54796 16313 36% 67 548815 82660 61%
c 
c  seconds     reductions      redundant   irredundant
c           MB      restarts          trail        variables
c             level      conflicts        glue          remaining
c 
c O 384.95 199 276 14 1717 55016 16530 36% 67 548815 82660 61%
c - 407.26 198 278 15 1723 62623 16846 32% 66 548815 82660 61%
c ] 407.28 198 278 15 1723 63004 17223 31% 65 548815 82660 61%
c { 407.28 198 279 15 1723 63004 17223 11% 53 548815 82660 61%
c B 407.69 198 278 15 1732 66017 20134 10% 51 548815 82660 61%
c - 420.58 173 275 16 2290 70973 18047 11% 56 548815 82660 61%
c p 423.04 173 276 16 2406 75006 39743 11% 54 548815 82660 61%
c d 423.11 173 276 16 2406 75006 39741 11% 54 548815 82659 61%
c W 428.76 173 274 16 2614 78019 42625 11% 55 548815 82659 61%
c - 440.30 203 273 17 2993 79845 19646 12% 61 548815 82659 61%
c s 452.47 203 272 17 3348 81251 21001 14% 68 548814 82659 61%
c v 453.33 203 272 17 3348 81251 21001 14% 68 548811 82659 61%
c w 453.53 203 272 17 3348 81251 21000 14% 68 548811 82659 61%
c t 453.55 203 272 17 3348 81251 20994 14% 68 548809 82659 61%
c s 453.66 203 272 17 3348 81251 20974 14% 68 548809 82659 61%
c ^ 453.71 203 272 17 3348 81251 20974 14% 68 548809 82659 61%
c - 514.85 250 269 18 5290 89237 21215 21% 94 548809 82659 61%
c # 530.59 250 268 18 5735 91020 22985 22% 100 548809 82659 61%
c - 602.14 203 263 19 7769 99152 21676 28% 117 548809 82659 61%
c 3 653.60 203 260 19 9233 105006 32790 31% 127 548809 82659 61%
c 
c  seconds     reductions       redundant    irredundant
c           MB      restarts           trail         variables
c             level      conflicts          glue          remaining
c 
c d 653.75 203 260 19 9233 105006 39012 31% 127 548809 82658 61%
c p 653.83 203 260 19 9233 105006 43396 31% 127 548809 82658 61%
c B 654.02 203 260 19 9236 105021 43411 31% 127 548809 82658 61%
c - 694.72 254 260 20 10378 109588 22126 33% 135 548809 82658 61%
c s 733.85 254 259 20 11487 114024 26511 35% 141 548805 82658 61%
c v 734.72 254 259 20 11487 114024 26511 35% 141 548804 82658 61%
c w 734.91 254 259 20 11487 114024 26511 35% 141 548804 82658 61%
c e 735.52 254 259 20 11487 114024 14110 35% 141 549976 81482 60%
c s 735.54 254 259 20 11487 114024 14095 35% 141 549727 81482 60%
c e 735.71 203 259 20 11487 114024 14048 35% 141 549971 81146 60%
c W 789.61 203 259 20 12987 120023 20026 36% 149 549971 81146 60%
c - 794.38 246 259 21 13118 120546 16602 37% 150 549971 81146 60%
c } 850.94 246 259 21 14732 127004 23046 38% 157 549971 81146 60%
c [ 850.94 246 278 21 14732 127004 23046 31% 65 549971 81146 60%
c - 884.82 203 276 22 14734 132032 21352 32% 80 549971 81146 60%
c B 911.22 203 275 22 14737 136026 25180 32% 91 549971 81146 60%
c 3 917.78 203 275 22 14739 140006 34967 30% 89 549971 81146 60%
c p 917.95 203 275 22 14739 140006 43849 30% 89 549971 81146 60%
c - 932.20 246 274 23 14740 144040 23634 29% 92 549971 81146 60%
c s 957.25 246 271 23 14741 152676 32025 27% 95 549971 81146 60%
c 
c  seconds     reductions        redundant   irredundant
c           MB       restarts           trail        variables
c             level       conflicts         glue          remaining
c 
c v 958.14 246 271 23 14741 152676 32025 27% 95 549963 81146 60%
c w 958.88 246 271 23 14741 152676 32021 27% 95 549963 81146 60%
c s 959.09 246 271 23 14741 152676 31995 27% 95 549963 81146 60%
c ^ 959.15 246 271 23 14741 152676 31995 27% 95 549963 81146 60%
c W 962.53 246 271 23 14741 153027 32333 27% 95 549963 81146 60%
c - 983.52 203 271 24 14741 156571 25030 27% 100 549963 81146 60%
c - 1063.48 251 269 25 14743 169624 27025 28% 113 549963 81146 60%
c I 1066.23 251 269 25 14744 171029 28341 27% 113 549963 81146 60%
c p 1103.58 251 270 25 14748 180007 49940 26% 116 549963 81146 60%
c - 1113.79 203 270 26 14751 183198 27945 26% 116 549963 81146 60%
c B 1136.15 203 271 26 14755 190030 34616 25% 116 549963 81146 60%
c s 1165.53 203 271 26 14756 196848 41250 25% 114 549963 81146 60%
c w 1166.87 203 271 26 14756 196848 41248 25% 114 549963 81146 60%
c e 1167.48 203 271 26 14756 196848 29810 25% 114 550030 81058 60%
c s 1167.51 203 271 26 14756 196848 29767 25% 114 549893 81058 60%
c - 1170.01 203 272 27 14756 197298 22440 25% 114 549893 81058 60%
c W 1211.16 203 273 27 14763 210033 34841 23% 113 549893 81058 60%
c - 1212.85 242 273 28 14763 211917 28680 23% 112 549893 81058 60%
c 3 1257.06 242 274 28 14770 225007 45744 22% 113 549893 81058 60%
c p 1257.26 242 274 28 14770 225007 54009 22% 113 549893 81057 60%
c 
c   seconds     reductions        redundant    irredundant
c            MB       restarts           trail         variables
c              level       conflicts          glue          remaining
c 
c - 1263.58 203 274 29 14771 227057 31314 22% 113 549893 81057 60%
c O 1275.10 203 273 29 14771 231036 35192 22% 113 549893 81057 60%
c - 1334.71 254 273 30 14772 242720 33102 22% 115 549893 81057 60%
c s 1361.90 254 273 30 14772 246568 36845 23% 117 549859 81057 60%
c v 1362.78 254 273 30 14772 246568 36845 23% 117 549739 81057 60%
c w 1363.22 254 273 30 14772 246568 36844 23% 117 549739 81057 60%
c s 1363.36 254 273 30 14772 246568 36826 23% 117 549739 81057 60%
c B 1387.24 254 273 30 14773 253041 43172 23% 115 549739 81057 60%
c ] 1387.47 254 273 30 14773 255004 45078 22% 114 549739 81057 60%
c { 1387.47 254 259 30 14773 255004 45078 38% 157 549739 81057 60%
c - 1422.23 203 258 31 15747 258904 34369 39% 160 549739 81057 60%
c p 1565.89 203 254 31 19773 275008 62126 42% 171 549739 81057 60%
c - 1571.49 260 254 32 19923 275610 34525 42% 172 549739 81057 60%
c F 1575.37 260 254 32 20031 276043 34952 42% 172 549739 81057 60%
c - 1722.63 274 255 33 24231 292838 34356 44% 181 549739 81057 60%
c B 1785.55 274 256 33 26032 300045 41553 45% 183 549739 81057 60%
c - 1877.50 275 253 34 26032 310587 34939 46% 185 549739 81057 60%
c W 2004.93 275 251 34 26032 325046 49394 47% 187 549739 81057 60%
c - 2038.79 277 250 35 26032 328859 35555 47% 188 549739 81057 60%
c p 2049.16 277 250 35 26032 330009 48022 47% 188 549739 81057 60%
c 
c   seconds     reductions        redundant    irredundant
c            MB       restarts           trail         variables
c              level       conflicts          glue          remaining
c 
c - 2204.43 279 248 36 26032 347653 36217 48% 191 549739 81057 60%
c # 2234.21 279 248 36 26032 351048 39612 48% 191 549739 81057 60%
c - 2374.28 279 247 37 26032 366968 36915 49% 192 549739 81057 60%
c B 2471.50 279 247 37 26032 378049 47941 49% 192 549739 81057 60%
c - 2548.39 281 247 38 26032 386805 37600 49% 193 549739 81057 60%
c p 2576.52 281 247 38 26032 390009 43979 49% 194 549739 81057 60%
c W 2717.97 281 246 38 26032 406050 59980 50% 195 549739 81057 60%
c - 2728.02 283 246 39 26032 407165 38274 50% 195 549739 81057 60%
c - 2912.37 286 245 40 26032 428046 39135 50% 196 549739 81057 60%
c F 2974.08 286 245 40 26032 435051 46125 50% 196 549739 81057 60%
c - 3100.92 289 245 41 26032 449449 39841 50% 196 549739 81057 60%
c p 3150.19 289 245 41 26032 455010 56138 50% 196 549739 81057 60%
c B 3238.78 289 245 41 26032 465053 66161 50% 197 549739 81057 60%
c - 3294.66 292 246 42 26032 471374 40611 51% 198 549739 81057 60%
c - 3492.56 293 246 43 26032 493822 41205 51% 199 549739 81057 60%
c W 3513.28 293 246 43 26032 496055 43435 51% 199 549739 81057 60%
c 
c caught signal 2 (SIGINT)
c 
c --- [ result ] -------------------------------------------------------------
c 
c UNKNOWN
c 
c --- [ run-time profiling ] -------------------------------------------------
c 
c process time taken by individual solving procedures
c (percentage relative to process time for solving)
c 
c      3579.94   99.47% search
c      2675.08   74.33% unstable
c       893.98   24.84% stable
c        19.19    0.53% simplify
c        10.81    0.30% walk
c        10.45    0.29% vivify
c         3.46    0.10% elim
c         1.62    0.05% ternary
c         1.07    0.03% subsume
c         0.41    0.01% probe
c         0.38    0.01% parse
c         0.07    0.00% lucky
c   =================================
c      3599.13   99.99% solve
c 
c last line shows process time for solving
c (percentage relative to total process time)
c 
c --- [ statistics ] ---------------------------------------------------------
c 
c chronological:             24403         4.82 %  of conflicts
c conflicts:                505810       140.54    per second
c decisions:               1097867       305.04    per second
c eliminated:                43913        32.58 %  of all variables
c fixed:                       884         0.66 %  of all variables
c learned:                  502551        99.36 %  per conflict
c learned_lits:          541773346       100.00 %  learned literals
c minimized:                     0         0.00 %  learned literals
c shrunken:               24428485         4.51 %  learned literals
c minishrunken:          236020499        43.56 %  learned literals
c otfs:                       2318         0.46 %  of conflict
c propagations:        14694202815         4.08 M  per second
c reduced:                  416854        82.41 %  per conflict
c rephased:                     31     16316.45    interval
c restarts:                  26032        19.43    interval
c stabilizing:                   4        33.61 %  of conflicts
c substituted:                  92         0.07 %  of all variables
c subsumed:                  37563         2.29 %  of all clauses
c strengthened:              33530         2.05 %  of all clauses
c ternary:                  146929         0.98 %  of resolved
c trail reuses:                  0         0.00 %  of incremental calls
c vivified:                  19178         1.17 %  of all clauses
c walked:                        9     56201.11    interval
c weakened:                 198055         2.88    average size
c 
c seconds are measured in process time for solving
c 
c --- [ resources ] ----------------------------------------------------------
c 
c total process time since initialization:      3599.51    seconds
c total real time since initialization:         3600.00    seconds
c maximum resident set size of process:          381.56    MB
c 
c raising signal 2 (SIGINT)
